% seed = 0

mint = 13;
% maxt = 64;

nActs = 22;
dur = [0,5,1,1,2,5,5,3,3,4,4,5,1,5,3,2,3,5,2,4,1,0];

nSkills = 8;
sreq = [| 0,0,0,0,0,0,0,0,
	| 1,2,0,1,1,0,0,0,
	| 0,2,1,0,0,0,2,0,
	| 1,1,2,0,0,1,0,0,
	| 4,1,0,0,0,0,0,0,
	| 0,1,1,1,1,0,0,0,
	| 0,2,0,0,1,0,0,1,
	| 0,2,0,0,0,0,1,1,
	| 2,0,0,1,0,1,0,0,
	| 4,0,0,0,0,0,0,0,
	| 1,0,1,0,0,1,0,0,
	| 1,1,0,0,0,0,0,1,
	| 1,1,0,0,0,0,0,1,
	| 1,0,0,1,1,0,0,0,
	| 2,0,0,0,0,0,0,1,
	| 1,1,1,0,0,1,0,1,
	| 0,1,0,0,1,0,2,1,
	| 2,0,0,0,0,0,2,1,
	| 1,0,0,1,1,1,0,1,
	| 3,0,0,0,0,1,0,1,
	| 0,2,0,0,1,0,1,0,
	| 0,0,0,0,0,0,0,0, |];

% SumOfsreq = 84;

nResources = 10;
mastery = [| false,true,true,true,true,true,true,false,
	| true,true,true,false,true,true,true,false,
	| false,false,true,true,true,true,true,true,
	| true,false,true,true,true,false,true,false,
	| true,true,true,true,false,false,false,true,
	| false,true,false,true,true,true,false,true,
	| true,true,true,false,false,true,false,true,
	| false,true,true,false,false,false,true,true,
	| true,true,false,false,true,true,false,false,
	| false,true,true,false,false,false,true,true, |];

nPrecs = 54;
pred = [1,1,1,1,1,1,1,1,1,1,1,1,1,1,1,1,1,1,1,1,2,2,2,3,3,4,4,4,5,6,6,7,7,8,8,9,9,10,10,10,11,12,13,14,14,14,14,15,16,17,18,19,20,21];
succ = [2,3,4,5,6,7,8,9,10,11,12,13,14,15,16,17,18,19,20,21,11,20,22,22,8,18,11,22,22,22,7,17,22,12,22,13,22,13,22,16,22,22,22,17,18,21,22,22,22,22,22,22,22,22];

nUnrels = 174;
unpred = [2,2,2,2,2,2,2,2,2,2,2,2,2,2,2,2,2,3,3,3,3,3,3,3,3,3,3,3,3,3,3,3,3,4,4,4,4,4,4,4,4,4,4,4,4,4,4,4,5,5,5,5,5,5,5,5,5,5,5,5,5,5,5,5,6,6,6,6,6,6,6,6,6,6,6,6,6,7,7,7,7,7,7,7,7,7,7,7,7,7,8,8,8,8,8,8,8,8,8,8,8,8,9,9,9,9,9,9,9,9,9,9,9,10,10,10,10,10,10,10,10,10,11,11,11,11,11,11,11,11,11,11,12,12,12,12,12,12,12,12,12,13,13,13,13,13,13,13,13,14,14,14,14,15,15,15,15,15,15,16,16,16,16,16,17,17,17,17,18,18,18,19,19,20];
unsucc = [3,4,5,6,7,8,9,10,12,13,14,15,16,17,18,19,21,4,5,6,7,9,10,11,13,14,15,16,17,18,19,20,21,5,6,7,8,9,10,12,13,14,15,16,17,19,20,21,6,7,8,9,10,11,12,13,14,15,16,17,18,19,20,21,8,9,10,11,12,13,14,15,16,18,19,20,21,8,9,10,11,12,13,14,15,16,18,19,20,21,9,10,11,13,14,15,16,17,18,19,20,21,10,11,12,14,15,16,17,18,19,20,21,11,12,14,15,17,18,19,20,21,12,13,14,15,16,17,18,19,20,21,13,14,15,16,17,18,19,20,21,14,15,16,17,18,19,20,21,15,16,19,20,16,17,18,19,20,21,17,18,19,20,21,18,19,20,21,19,20,21,20,21,21];

USEFUL_RES = [{},
	{1,2,3,4,5,6,7,8,9,10},
	{1,2,3,4,5,6,7,8,9,10},
	{1,2,3,4,5,6,7,8,9,10},
	{1,2,4,5,6,7,8,9,10},
	{1,2,3,4,5,6,7,8,9,10},
	{1,2,3,4,5,6,7,8,9,10},
	{1,2,3,4,5,6,7,8,9,10},
	{1,2,3,4,5,6,7,9},
	{2,4,5,7,9},
	{1,2,3,4,5,6,7,8,9,10},
	{1,2,3,4,5,6,7,8,9,10},
	{1,2,3,4,5,6,7,8,9,10},
	{1,2,3,4,5,6,7,9},
	{2,3,4,5,6,7,8,9,10},
	{1,2,3,4,5,6,7,8,9,10},
	{1,2,3,4,5,6,7,8,9,10},
	{1,2,3,4,5,6,7,8,9,10},
	{1,2,3,4,5,6,7,8,9,10},
	{1,2,3,4,5,6,7,8,9,10},
	{1,2,3,4,5,6,7,8,9,10},
	{}];

POTENTIAL_ACT = [{2,3,4,5,6,7,8,9,11,12,13,14,16,17,18,19,20,21},
	{2,3,4,5,6,7,8,9,10,11,12,13,14,15,16,17,18,19,20,21},
	{2,3,4,6,7,8,9,11,12,13,14,15,16,17,18,19,20,21},
	{2,3,4,5,6,7,8,9,10,11,12,13,14,15,16,17,18,19,20,21},
	{2,3,4,5,6,7,8,9,10,11,12,13,14,15,16,17,18,19,20,21},
	{2,3,4,5,6,7,8,9,11,12,13,14,15,16,17,18,19,20,21},
	{2,3,4,5,6,7,8,9,10,11,12,13,14,15,16,17,18,19,20,21},
	{2,3,4,5,6,7,8,11,12,13,15,16,17,18,19,20,21},
	{2,3,4,5,6,7,8,9,10,11,12,13,14,15,16,17,18,19,20,21},
	{2,3,4,5,6,7,8,11,12,13,15,16,17,18,19,20,21}];
